GLPSOL--GLPK LP/MIP Solver 5.0
Parameter(s) specified in the command line:
 --cpxlp --first inputs/new_no_tr/order/default35_down_left_input.lp -o solutions/new_no_tr/default35_down_left_input.lp
Reading problem data from 'inputs/new_no_tr/order/default35_down_left_input.lp'...
inputs/new_no_tr/order/default35_down_left_input.lp:6171: warning: lower bound of variable 'm_1_1' redefined
inputs/new_no_tr/order/default35_down_left_input.lp:6171: warning: upper bound of variable 'm_1_1' redefined
5966 rows, 2486 columns, 17528 non-zeros
2486 integer variables, 2288 of which are binary
8621 lines were read
GLPK Integer Optimizer 5.0
5966 rows, 2486 columns, 17528 non-zeros
2486 integer variables, 2288 of which are binary
Preprocessing...
30 hidden packing inequaliti(es) were detected
328 hidden covering inequaliti(es) were detected
1098 constraint coefficient(s) were reduced
5544 rows, 2206 columns, 16069 non-zeros
2206 integer variables, 2170 of which are binary
Scaling...
 A: min|aij| =  1.000e+00  max|aij| =  1.024e+04  ratio =  1.024e+04
GM: min|aij| =  4.111e-01  max|aij| =  2.432e+00  ratio =  5.916e+00
EQ: min|aij| =  1.690e-01  max|aij| =  1.000e+00  ratio =  5.916e+00
2N: min|aij| =  1.250e-01  max|aij| =  1.562e+00  ratio =  1.250e+01
Constructing initial basis...
Size of triangular part is 4995
Solving LP relaxation...
GLPK Simplex Optimizer 5.0
5544 rows, 2206 columns, 16069 non-zeros
      0: obj =   2.867200000e+04 inf =   2.169e+02 (181)
Perturbing LP to avoid stalling [200]...
   1750: obj =   4.906539297e+04 inf =   1.635e-07 (0) 17
Removing LP perturbation [2405]...
*  2405: obj =   2.867200000e+04 inf =   2.299e-14 (0) 6
OPTIMAL LP SOLUTION FOUND
Integer optimization begins...
Long-step dual simplex will be used
+  2405: mip =     not found yet >=              -inf        (1; 0)
+ 14857: mip =     not found yet >=   2.867200000e+04        (53; 27)
+ 27795: mip =     not found yet >=   2.867200000e+04        (60; 36)
+ 42953: mip =     not found yet >=   2.867200000e+04        (77; 59)
+ 56261: mip =     not found yet >=   2.867200000e+04        (99; 70)
+ 70426: mip =     not found yet >=   2.867200000e+04        (132; 74)
+ 82752: mip =     not found yet >=   2.867200000e+04        (137; 75)
+ 96069: mip =     not found yet >=   2.867200000e+04        (138; 75)
+110248: mip =     not found yet >=   2.869400000e+04        (123; 93)
+121997: mip =     not found yet >=   2.887700000e+04        (131; 97)
+133940: mip =     not found yet >=   2.911000000e+04        (136; 107)
Time used: 60.3 secs.  Memory used: 8.0 Mb.
+147689: mip =     not found yet >=   2.937000000e+04        (133; 116)
+162020: mip =     not found yet >=   2.986100000e+04        (144; 120)
+179439: mip =     not found yet >=   2.986100000e+04        (146; 120)
+192823: mip =     not found yet >=   2.999700000e+04        (151; 124)
+205055: mip =     not found yet >=   3.032300000e+04        (173; 130)
+217052: mip =     not found yet >=   3.056300000e+04        (193; 133)
+231218: mip =     not found yet >=   3.056300000e+04        (192; 167)
+243288: mip =     not found yet >=   3.059200000e+04        (202; 170)
+258986: mip =     not found yet >=   3.059200000e+04        (214; 171)
+271716: mip =     not found yet >=   3.059200000e+04        (223; 192)
+286231: mip =     not found yet >=   3.059200000e+04        (227; 207)
Time used: 120.9 secs.  Memory used: 8.8 Mb.
+300309: mip =     not found yet >=   3.059200000e+04        (221; 224)
+317342: mip =     not found yet >=   3.059200000e+04        (245; 231)
+330565: mip =     not found yet >=   3.059200000e+04        (238; 244)
+343915: mip =     not found yet >=   3.062200000e+04        (238; 252)
+356606: mip =     not found yet >=   3.063000000e+04        (268; 255)
+370049: mip =     not found yet >=   3.063000000e+04        (283; 255)
+383011: mip =     not found yet >=   3.063000000e+04        (305; 255)
+399117: mip =     not found yet >=   3.063400000e+04        (325; 257)
+411230: mip =     not found yet >=   3.064400000e+04        (327; 260)
+424599: mip =     not found yet >=   3.064400000e+04        (333; 260)
Time used: 181.5 secs.  Memory used: 9.6 Mb.
+437456: mip =     not found yet >=   3.064400000e+04        (380; 261)
+450110: mip =     not found yet >=   3.064400000e+04        (388; 263)
+462529: mip =     not found yet >=   3.064500000e+04        (393; 267)
+477729: mip =     not found yet >=   3.070600000e+04        (398; 272)
+492385: mip =     not found yet >=   3.070600000e+04        (402; 275)
+504542: mip =     not found yet >=   3.072000000e+04        (401; 300)
+515967: mip =     not found yet >=   3.072000000e+04        (391; 321)
+528786: mip =     not found yet >=   3.072000000e+04        (409; 329)
+540516: mip =     not found yet >=   3.072000000e+04        (427; 335)
+554211: mip =     not found yet >=   3.072000000e+04        (451; 345)
+567585: mip =     not found yet >=   3.072000000e+04        (471; 345)
Time used: 241.6 secs.  Memory used: 10.7 Mb.
+579475: mip =     not found yet >=   3.072000000e+04        (492; 355)
+592282: mip =     not found yet >=   3.072000000e+04        (491; 376)
+605642: mip =     not found yet >=   3.092900000e+04        (499; 400)
+617739: mip =     not found yet >=   3.098800000e+04        (528; 408)
+630000: mip =     not found yet >=   3.104200000e+04        (530; 461)
+641994: mip =     not found yet >=   3.104200000e+04        (534; 466)
+654381: mip =     not found yet >=   3.104200000e+04        (536; 478)
+668950: mip =     not found yet >=   3.104200000e+04        (529; 495)
+684763: mip =     not found yet >=   3.106300000e+04        (537; 503)
+696871: mip =     not found yet >=   3.109000000e+04        (540; 508)
+708905: mip =     not found yet >=   3.114600000e+04        (543; 513)
Time used: 303.2 secs.  Memory used: 11.7 Mb.
+722884: mip =     not found yet >=   3.118900000e+04        (535; 533)
+736940: mip =     not found yet >=   3.121500000e+04        (541; 537)
+751981: mip =     not found yet >=   3.121600000e+04        (569; 538)
+766327: mip =     not found yet >=   3.121600000e+04        (594; 539)
+779660: mip =     not found yet >=   3.121700000e+04        (597; 540)
+791696: mip =     not found yet >=   3.122100000e+04        (599; 542)
+804181: mip =     not found yet >=   3.124300000e+04        (618; 544)
+816434: mip =     not found yet >=   3.130700000e+04        (622; 550)
+829537: mip =     not found yet >=   3.130700000e+04        (627; 550)
+841867: mip =     not found yet >=   3.130700000e+04        (629; 551)
+855493: mip =     not found yet >=   3.130700000e+04        (637; 552)
Time used: 364.1 secs.  Memory used: 12.5 Mb.
+867483: mip =     not found yet >=   3.130800000e+04        (641; 554)
+882833: mip =     not found yet >=   3.130800000e+04        (662; 554)
+896062: mip =     not found yet >=   3.130800000e+04        (683; 556)
+909084: mip =     not found yet >=   3.130800000e+04        (686; 557)
+922238: mip =     not found yet >=   3.133200000e+04        (688; 558)
+936836: mip =     not found yet >=   3.140300000e+04        (692; 565)
+952492: mip =     not found yet >=   3.140300000e+04        (722; 566)
+964284: mip =     not found yet >=   3.143200000e+04        (727; 570)
+981167: mip =     not found yet >=   3.143600000e+04        (730; 572)
+991372: mip =     not found yet >=   3.143600000e+04        (733; 572)
Time used: 424.5 secs.  Memory used: 13.3 Mb.
+1003598: mip =     not found yet >=   3.152600000e+04        (733; 577)
+1017715: mip =     not found yet >=   3.168300000e+04        (736; 581)
+1030028: mip =     not found yet >=   3.169500000e+04        (738; 583)
+1042153: mip =     not found yet >=   3.174400000e+04        (729; 597)
+1054843: mip =     not found yet >=   3.174400000e+04        (708; 637)
+1067339: mip =     not found yet >=   3.174400000e+04        (732; 642)
+1083098: mip =     not found yet >=   3.174400000e+04        (764; 671)
+1096439: mip =     not found yet >=   3.174400000e+04        (772; 672)
+1109454: mip =     not found yet >=   3.174400000e+04        (791; 685)
+1121681: mip =     not found yet >=   3.174400000e+04        (790; 709)
+1134154: mip =     not found yet >=   3.174400000e+04        (807; 722)
+1148408: mip =     not found yet >=   3.185000000e+04        (819; 742)
Time used: 484.9 secs.  Memory used: 14.3 Mb.
+1161839: mip =     not found yet >=   3.196700000e+04        (853; 757)
+1175675: mip =     not found yet >=   3.196700000e+04        (861; 757)
+1187714: mip =     not found yet >=   3.212900000e+04        (856; 781)
+1201548: mip =     not found yet >=   3.223100000e+04        (861; 786)
+1213682: mip =     not found yet >=   3.223100000e+04        (882; 789)
+1226990: mip =     not found yet >=   3.223100000e+04        (885; 792)
+1239775: mip =     not found yet >=   3.223100000e+04        (893; 793)
+1253310: mip =     not found yet >=   3.223100000e+04        (893; 798)
+1265649: mip =     not found yet >=   3.223100000e+04        (898; 800)
+1278472: mip =     not found yet >=   3.223100000e+04        (902; 802)
+1291076: mip =     not found yet >=   3.223100000e+04        (903; 804)
Time used: 545.4 secs.  Memory used: 15.2 Mb.
+1306682: mip =     not found yet >=   3.223100000e+04        (905; 806)
+1319329: mip =     not found yet >=   3.223100000e+04        (904; 810)
+1332380: mip =     not found yet >=   3.223100000e+04        (905; 812)
+1346584: mip =     not found yet >=   3.223100000e+04        (907; 815)
+1358860: mip =     not found yet >=   3.223100000e+04        (912; 817)
+1372615: mip =     not found yet >=   3.223100000e+04        (916; 820)
+1385356: mip =     not found yet >=   3.223100000e+04        (917; 821)
+1397719: mip =     not found yet >=   3.223100000e+04        (919; 823)
+1410369: mip =     not found yet >=   3.224400000e+04        (916; 832)
+1423120: mip =     not found yet >=   3.224400000e+04        (925; 833)
+1434828: mip =     not found yet >=   3.224400000e+04        (925; 839)
Time used: 605.9 secs.  Memory used: 15.7 Mb.
+1447074: mip =     not found yet >=   3.224400000e+04        (936; 840)
+1459132: mip =     not found yet >=   3.226100000e+04        (978; 849)
+1471539: mip =     not found yet >=   3.226100000e+04        (983; 849)
+1485892: mip =     not found yet >=   3.228800000e+04        (910; 947)
+1499694: mip =     not found yet >=   3.230200000e+04        (926; 960)
+1513074: mip =     not found yet >=   3.230200000e+04        (940; 966)
+1525557: mip =     not found yet >=   3.230200000e+04        (977; 969)
+1539441: mip =     not found yet >=   3.230700000e+04        (975; 992)
+1553337: mip =     not found yet >=   3.230700000e+04        (983; 994)
+1565938: mip =     not found yet >=   3.230700000e+04        (1032; 997)
+1578976: mip =     not found yet >=   3.230700000e+04        (1038; 998)
Time used: 665.9 secs.  Memory used: 16.8 Mb.
+1592947: mip =     not found yet >=   3.231000000e+04        (1059; 1001)
+1606695: mip =     not found yet >=   3.232100000e+04        (1048; 1019)
+1621551: mip =     not found yet >=   3.232300000e+04        (1039; 1036)
+1635146: mip =     not found yet >=   3.232300000e+04        (1069; 1037)
+1648972: mip =     not found yet >=   3.232300000e+04        (1076; 1038)
+1662503: mip =     not found yet >=   3.232800000e+04        (1093; 1039)
+1676090: mip =     not found yet >=   3.235500000e+04        (1084; 1070)
+1689345: mip =     not found yet >=   3.237000000e+04        (1083; 1077)
+1703558: mip =     not found yet >=   3.237400000e+04        (1100; 1079)
+1716114: mip =     not found yet >=   3.239100000e+04        (1111; 1088)
+1729815: mip =     not found yet >=   3.241600000e+04        (1125; 1101)
+1742556: mip =     not found yet >=   3.248700000e+04        (1096; 1134)
Time used: 726.0 secs.  Memory used: 17.6 Mb.
+1757235: mip =     not found yet >=   3.248700000e+04        (1093; 1156)
+1769447: mip =     not found yet >=   3.248700000e+04        (1089; 1170)
+1782477: mip =     not found yet >=   3.248700000e+04        (1109; 1184)
+1796821: mip =     not found yet >=   3.260000000e+04        (1106; 1191)
+1809371: mip =     not found yet >=   3.260000000e+04        (1112; 1194)
+1825669: mip =     not found yet >=   3.272400000e+04        (1123; 1197)
+1837362: mip =     not found yet >=   3.272400000e+04        (1129; 1198)
+1850076: mip =     not found yet >=   3.272400000e+04        (1142; 1200)
+1860974: mip =     not found yet >=   3.272800000e+04        (1145; 1201)
+1873561: mip =     not found yet >=   3.273000000e+04        (1151; 1202)
Time used: 787.3 secs.  Memory used: 18.3 Mb.
+1886108: mip =     not found yet >=   3.273100000e+04        (1179; 1206)
+1899579: mip =     not found yet >=   3.276800000e+04        (1186; 1238)
+1911660: mip =     not found yet >=   3.279200000e+04        (1175; 1272)
+1923277: mip =     not found yet >=   3.279200000e+04        (1178; 1286)
+1936910: mip =     not found yet >=   3.280700000e+04        (1177; 1303)
+1950574: mip =     not found yet >=   3.283300000e+04        (1180; 1307)
+1961829: mip =     not found yet >=   3.286700000e+04        (1177; 1321)
+1973388: mip =     not found yet >=   3.289200000e+04        (1179; 1324)
+1986308: mip =     not found yet >=   3.289300000e+04        (1185; 1345)
+1998313: mip =     not found yet >=   3.289300000e+04        (1193; 1358)
+2010931: mip =     not found yet >=   3.291100000e+04        (1194; 1375)
Time used: 847.3 secs.  Memory used: 19.4 Mb.
+2024049: mip =     not found yet >=   3.303400000e+04        (1183; 1404)
+2036444: mip =     not found yet >=   3.308300000e+04        (1186; 1429)
+2048948: mip =     not found yet >=   3.308300000e+04        (1214; 1439)
+2062988: mip =     not found yet >=   3.314100000e+04        (1225; 1455)
+2076495: mip =     not found yet >=   3.314100000e+04        (1246; 1458)
+2089419: mip =     not found yet >=   3.314100000e+04        (1250; 1459)
+2102351: mip =     not found yet >=   3.314100000e+04        (1262; 1468)
+2114363: mip =     not found yet >=   3.314100000e+04        (1270; 1469)
+2128562: mip =     not found yet >=   3.316100000e+04        (1294; 1476)
+2142409: mip =     not found yet >=   3.317800000e+04        (1294; 1487)
+2153963: mip =     not found yet >=   3.317800000e+04        (1297; 1489)
Time used: 907.4 secs.  Memory used: 20.5 Mb.
+2168090: mip =     not found yet >=   3.317800000e+04        (1303; 1490)
+2179993: mip =     not found yet >=   3.318100000e+04        (1307; 1492)
+2194250: mip =     not found yet >=   3.318100000e+04        (1314; 1494)
+2207936: mip =     not found yet >=   3.318500000e+04        (1319; 1499)
+2221134: mip =     not found yet >=   3.323700000e+04        (1327; 1513)
+2234833: mip =     not found yet >=   3.325300000e+04        (1332; 1528)
+2246421: mip =     not found yet >=   3.330300000e+04        (1333; 1530)
+2259062: mip =     not found yet >=   3.330300000e+04        (1354; 1531)
+2270848: mip =     not found yet >=   3.330300000e+04        (1361; 1532)
+2285234: mip =     not found yet >=   3.331400000e+04        (1365; 1533)
+2297261: mip =     not found yet >=   3.331400000e+04        (1368; 1538)
Time used: 968.2 secs.  Memory used: 21.1 Mb.
+2310864: mip =     not found yet >=   3.333700000e+04        (1408; 1546)
+2323203: mip =     not found yet >=   3.336500000e+04        (1427; 1552)
+2335154: mip =     not found yet >=   3.336500000e+04        (1428; 1555)
+2347497: mip =     not found yet >=   3.336500000e+04        (1444; 1556)
+2358708: mip =     not found yet >=   3.348200000e+04        (1425; 1585)
+2371993: mip =     not found yet >=   3.350100000e+04        (1445; 1592)
+2383562: mip =     not found yet >=   3.350100000e+04        (1447; 1594)
+2397574: mip =     not found yet >=   3.351100000e+04        (1451; 1597)
+2411975: mip =     not found yet >=   3.352600000e+04        (1521; 1603)
+2425503: mip =     not found yet >=   3.359600000e+04        (1520; 1614)
+2439271: mip =     not found yet >=   3.361000000e+04        (1543; 1618)
Time used: 1029.0 secs.  Memory used: 22.1 Mb.
+2452439: mip =     not found yet >=   3.361000000e+04        (1555; 1620)
+2466654: mip =     not found yet >=   3.364200000e+04        (1586; 1622)
+2482986: mip =     not found yet >=   3.364200000e+04        (1588; 1624)
+2497322: mip =     not found yet >=   3.370500000e+04        (1596; 1629)
+2510502: mip =     not found yet >=   3.379200000e+04        (1595; 1649)
+2526879: mip =     not found yet >=   3.379200000e+04        (1610; 1654)
+2542940: mip =     not found yet >=   3.379200000e+04        (1612; 1660)
+2555673: mip =     not found yet >=   3.379200000e+04        (1664; 1683)
+2568900: mip =     not found yet >=   3.379200000e+04        (1680; 1687)
+2582078: mip =     not found yet >=   3.379200000e+04        (1677; 1696)
Time used: 1089.0 secs.  Memory used: 23.2 Mb.
+2594733: mip =     not found yet >=   3.379200000e+04        (1697; 1712)
+2607950: mip =     not found yet >=   3.379200000e+04        (1690; 1758)
+2620412: mip =     not found yet >=   3.379200000e+04        (1764; 1810)
+2633315: mip =     not found yet >=   3.379200000e+04        (1803; 1845)
+2645185: mip =     not found yet >=   3.379200000e+04        (1805; 1850)
+2658664: mip =     not found yet >=   3.379200000e+04        (1815; 1854)
+2671341: mip =     not found yet >=   3.379200000e+04        (1821; 1862)
+2683239: mip =     not found yet >=   3.379200000e+04        (1832; 1862)
+2695382: mip =     not found yet >=   3.379200000e+04        (1836; 1867)
+2708289: mip =     not found yet >=   3.379200000e+04        (1840; 1868)
+2719813: mip =     not found yet >=   3.379200000e+04        (1851; 1881)
Time used: 1150.1 secs.  Memory used: 24.7 Mb.
+2733034: mip =     not found yet >=   3.379200000e+04        (1857; 1881)
+2745225: mip =     not found yet >=   3.379200000e+04        (1874; 1887)
+2758280: mip =     not found yet >=   3.379200000e+04        (1887; 1887)
+2772056: mip =     not found yet >=   3.379200000e+04        (1895; 1899)
+2784963: mip =     not found yet >=   3.379200000e+04        (1896; 1911)
+2798655: mip =     not found yet >=   3.379200000e+04        (1904; 1923)
+2811609: mip =     not found yet >=   3.379200000e+04        (1903; 1938)
+2823963: mip =     not found yet >=   3.379200000e+04        (1907; 1938)
+2837843: mip =     not found yet >=   3.379200000e+04        (1912; 1946)
+2849386: mip =     not found yet >=   3.379200000e+04        (1918; 1956)
+2864561: mip =     not found yet >=   3.379200000e+04        (1913; 1978)
Time used: 1211.4 secs.  Memory used: 26.0 Mb.
+2878484: mip =     not found yet >=   3.379200000e+04        (1908; 2000)
+2891318: mip =     not found yet >=   3.379200000e+04        (1912; 2010)
+2906384: mip =     not found yet >=   3.379200000e+04        (1917; 2012)
+2920538: mip =     not found yet >=   3.379200000e+04        (1927; 2032)
+2932701: mip =     not found yet >=   3.379200000e+04        (1933; 2054)
+2945409: mip =     not found yet >=   3.381700000e+04        (1922; 2077)
+2958728: mip =     not found yet >=   3.381800000e+04        (1934; 2079)
+2975580: mip =     not found yet >=   3.383500000e+04        (1935; 2084)
+2988942: mip =     not found yet >=   3.383500000e+04        (1931; 2091)
+3002892: mip =     not found yet >=   3.383500000e+04        (1961; 2100)
Time used: 1272.4 secs.  Memory used: 27.0 Mb.
+3016623: mip =     not found yet >=   3.383500000e+04        (1962; 2108)
+3034033: mip =     not found yet >=   3.383500000e+04        (1987; 2112)
+3046269: mip =     not found yet >=   3.383500000e+04        (1991; 2113)
+3059199: mip =     not found yet >=   3.387300000e+04        (1987; 2137)
+3072477: mip =     not found yet >=   3.387600000e+04        (2001; 2139)
+3084162: mip =     not found yet >=   3.387900000e+04        (2015; 2141)
+3097133: mip =     not found yet >=   3.388500000e+04        (2020; 2145)
+3110826: mip =     not found yet >=   3.389000000e+04        (2030; 2155)
+3124196: mip =     not found yet >=   3.389000000e+04        (2048; 2155)
+3138073: mip =     not found yet >=   3.390300000e+04        (2065; 2175)
+3151237: mip =     not found yet >=   3.392200000e+04        (2070; 2188)
Time used: 1334.4 secs.  Memory used: 27.9 Mb.
+3167139: mip =     not found yet >=   3.392600000e+04        (2065; 2197)
+3179748: mip =     not found yet >=   3.394500000e+04        (2064; 2221)
+3192044: mip =     not found yet >=   3.394800000e+04        (2075; 2227)
+3205017: mip =     not found yet >=   3.397500000e+04        (2061; 2266)
+3217298: mip =     not found yet >=   3.398100000e+04        (2056; 2274)
+3230855: mip =     not found yet >=   3.398800000e+04        (2059; 2282)
+3243824: mip =     not found yet >=   3.403000000e+04        (2059; 2287)
+3257180: mip =     not found yet >=   3.405700000e+04        (2059; 2300)
+3270796: mip =     not found yet >=   3.406400000e+04        (2069; 2303)
+3284737: mip =     not found yet >=   3.406400000e+04        (2073; 2305)
+3299124: mip =     not found yet >=   3.406500000e+04        (2079; 2307)
Time used: 1395.6 secs.  Memory used: 28.7 Mb.
+3311867: mip =     not found yet >=   3.406800000e+04        (2083; 2309)
+3325046: mip =     not found yet >=   3.409700000e+04        (2093; 2319)
+3338164: mip =     not found yet >=   3.422500000e+04        (2097; 2323)
+3350597: mip =     not found yet >=   3.428800000e+04        (2098; 2334)
+3364347: mip =     not found yet >=   3.429300000e+04        (2122; 2338)
+3376274: mip =     not found yet >=   3.433300000e+04        (2166; 2341)
+3386965: mip =     not found yet >=   3.435800000e+04        (2173; 2343)
+3401117: mip =     not found yet >=   3.439700000e+04        (2179; 2346)
+3413709: mip =     not found yet >=   3.442000000e+04        (2173; 2360)
+3425800: mip =     not found yet >=   3.442500000e+04        (2179; 2368)
+3439106: mip =     not found yet >=   3.444200000e+04        (2182; 2371)
Time used: 1455.7 secs.  Memory used: 29.7 Mb.
+3452539: mip =     not found yet >=   3.444200000e+04        (2193; 2374)
+3467013: mip =     not found yet >=   3.444200000e+04        (2196; 2376)
+3483602: mip =     not found yet >=   3.444200000e+04        (2199; 2376)
+3495919: mip =     not found yet >=   3.444200000e+04        (2200; 2378)
+3509175: mip =     not found yet >=   3.444200000e+04        (2203; 2380)
+3522026: mip =     not found yet >=   3.445800000e+04        (2207; 2383)
+3533512: mip =     not found yet >=   3.447200000e+04        (2215; 2389)
+3546628: mip =     not found yet >=   3.447200000e+04        (2226; 2396)
+3558535: mip =     not found yet >=   3.448900000e+04        (2247; 2402)
+3571512: mip =     not found yet >=   3.469300000e+04        (2295; 2409)
+3584331: mip =     not found yet >=   3.470600000e+04        (2303; 2410)
Time used: 1516.5 secs.  Memory used: 30.4 Mb.
+3597578: mip =     not found yet >=   3.473500000e+04        (2335; 2418)
+3608915: mip =     not found yet >=   3.473500000e+04        (2352; 2419)
+3624075: mip =     not found yet >=   3.473500000e+04        (2355; 2422)
+3636021: mip =     not found yet >=   3.473500000e+04        (2364; 2428)
+3649535: mip =     not found yet >=   3.473500000e+04        (2367; 2429)
+3663306: mip =     not found yet >=   3.473500000e+04        (2374; 2435)
+3676415: mip =     not found yet >=   3.474200000e+04        (2389; 2439)
+3690719: mip =     not found yet >=   3.476600000e+04        (2391; 2441)
+3702576: mip =     not found yet >=   3.481600000e+04        (2471; 2500)
+3702917: >>>>>   3.481600000e+04 >=   3.481600000e+04   0.0% (2481; 2504)
+3702917: mip =   3.481600000e+04 >=     tree is empty   0.0% (0; 9969)
INTEGER OPTIMAL SOLUTION FOUND
Time used:   1567.1 secs
Memory used: 32.6 Mb (34229204 bytes)
Writing MIP solution to 'solutions/new_no_tr/default35_down_left_input.lp'...
